research/drat/n2_k1.cnf
p cnf 63 158
-1 9 0
-10 -1 9 0
-10 1 -9 0
10 1 9 0
10 -1 -9 0
-10 -2 8 0
-11 10 0
-11 -2 8 0
-11 2 -8 0
11 -10 -2 -8 0
11 -10 2 8 0
-11 -3 7 0
-12 11 0
-12 -3 7 0
-12 3 -7 0
12 -11 -3 -7 0
12 -11 3 7 0
-12 -4 6 0
-13 12 0
-13 -4 6 0
-13 4 -6 0
13 -12 -4 -6 0
13 -12 4 6 0
-13 -6 4 0
-15 13 0
-15 -6 4 0
-15 6 -4 0
15 -13 -6 -4 0
15 -13 6 4 0
-15 -7 3 0
-16 15 0
-16 -7 3 0
-16 7 -3 0
16 -15 -7 -3 0
16 -15 7 3 0
-16 -8 2 0
-17 16 0
-17 -8 2 0
-17 8 -2 0
17 -16 -8 -2 0
17 -16 8 2 0
-17 -9 1 0
-18 17 0
-18 -9 1 0
-18 9 -1 0
18 -17 -9 -1 0
18 -17 9 1 0
7 8 9 0
3 6 9 0
-2 5 3 1 4 0
-6 9 3 5 8 0
-8 5 9 7 6 0
-1 4 2 0
-5 8 2 6 4 7 3 0
-7 4 8 5 0
-3 6 2 5 0
-9 6 8 0
-4 7 1 5 2 0
-19 2 0
-19 4 0
-20 3 0
-20 5 0
-21 5 0
-21 7 0
-22 6 0
-22 8 0
-23 1 0
-23 4 0
-24 2 0
-24 5 0
-25 3 0
-25 6 0
-26 4 0
-26 7 0
-27 5 0
-27 8 0
-28 6 0
-28 9 0
-29 1 0
-29 2 0
-30 2 0
-30 3 0
-31 4 0
-31 5 0
-32 5 0
-32 6 0
-33 7 0
-33 8 0
-34 8 0
-34 9 0
19 20 21 22 23 24 25 26 27 28 29 30 31 32 33 34 0
1 2 3 4 5 6 7 8 9 0
-49 35 0
-50 36 0
-51 37 0
-52 38 0
-44 35 0
-45 36 0
-46 37 0
-47 38 0
-48 39 0
-44 -49 36 0
-44 -50 37 0
-44 -51 38 0
-44 -52 39 0
-45 -49 37 0
-45 -50 38 0
-45 -51 39 0
-45 -52 40 0
-46 -49 38 0
-46 -50 39 0
-46 -51 40 0
-46 -52 41 0
-47 -49 39 0
-47 -50 40 0
-47 -51 41 0
-47 -52 42 0
-48 -49 40 0
-48 -50 41 0
-48 -51 42 0
-48 -52 43 0
-55 49 0
-56 50 0
-53 49 0
-54 50 0
-53 -55 50 0
-53 -56 51 0
-54 -55 51 0
-54 -56 52 0
-9 55 0
-8 55 0
-8 -9 56 0
-7 53 0
-6 53 0
-6 -7 54 0
-60 44 0
-61 45 0
-57 44 0
-58 45 0
-59 46 0
-57 -60 45 0
-57 -61 46 0
-58 -60 46 0
-58 -61 47 0
-59 -60 47 0
-59 -61 48 0
-5 60 0
-4 60 0
-4 -5 61 0
-3 57 0
-62 57 0
-63 58 0
-62 -3 58 0
-63 -3 59 0
-2 62 0
-1 62 0
-1 -2 63 0
-36 0
