research/drat/n2_k1.drat
-50 0
-45 0
-56 0
-54 0
-61 0
-58 0
-63 0
-1 0
-23 0
-29 0
-2 0
-19 0
-24 0
-30 0
-3 0
-20 0
-25 0
-4 0
-26 0
-31 0
49 0
35 0
-44 0
-60 0
-57 0
-5 0
-62 0
-21 0
-27 0
-32 0
-6 0
9 0
-22 0
-28 0
8 0
-17 0
-18 0
55 0
0
